9
2147483647 98 76 17 73 62 3 69 68 
98 2147483647 61 4 53 58 77 16 36 
76 61 2147483647 15 13 32 53 90 60 
17 4 15 2147483647 58 55 69 83 22 
73 53 13 58 2147483647 27 72 28 46 
62 58 32 55 27 2147483647 55 14 1 
3 77 53 69 72 55 2147483647 21 60 
69 16 90 83 28 14 21 2147483647 10 
68 36 60 22 46 1 60 10 2147483647 
